29 23
0 0 0 0 0 1 1 0 1 0 0 1 0 0 1 0 0 1 0 1 1 0 1 
0 1 1 0 0 1 0 1 1 0 1 1 1 0 1 1 0 0 1 0 1 1 1 
0 1 1 0 0 1 1 0 0 0 1 0 0 0 1 0 0 0 1 0 1 0 1 
0 1 1 1 0 1 1 0 1 0 1 1 0 1 0 1 1 0 0 0 1 1 0 
1 1 1 1 0 1 0 0 0 1 1 0 1 1 1 0 1 0 1 0 0 0 1 
0 1 0 1 1 0 0 1 1 0 0 1 0 1 0 1 0 0 0 0 0 1 0 
0 0 1 0 1 0 0 0 0 1 0 1 1 0 1 0 1 1 1 1 0 0 1 
1 1 0 0 1 1 0 0 1 0 1 0 1 1 1 1 0 0 0 0 1 1 1 
0 0 0 0 0 1 1 1 0 0 0 0 1 1 0 1 0 1 0 0 1 0 1 
0 1 0 1 1 0 1 1 0 0 1 0 1 1 0 0 1 0 1 0 0 0 0 
0 0 1 1 0 1 1 1 0 0 1 0 1 1 1 0 1 0 1 1 0 0 1 
1 0 0 0 0 0 1 0 0 1 0 1 0 0 0 1 0 1 1 0 0 0 0 
0 0 1 1 0 1 0 0 0 1 1 1 1 1 1 1 1 1 1 0 0 0 0 
0 0 0 0 1 0 1 1 0 0 1 1 1 1 1 0 1 1 0 1 1 0 0 
1 0 0 0 0 1 1 0 0 0 0 1 1 0 0 0 0 0 0 0 1 0 0 
0 0 1 1 1 1 0 0 0 1 1 0 1 0 1 0 0 0 1 0 0 1 1 
0 0 0 0 1 0 1 1 1 1 0 1 0 0 1 0 1 0 1 1 0 1 0 
0 0 0 0 1 1 0 0 1 0 1 1 1 1 0 0 1 0 0 1 1 0 0 
0 1 1 1 1 0 1 1 0 0 0 0 0 0 0 1 1 0 0 0 0 1 1 
0 0 0 0 0 1 0 0 0 0 0 0 1 1 0 0 0 1 0 1 1 1 0 
0 0 0 0 0 1 0 0 1 1 0 0 1 1 1 0 0 1 0 1 1 0 1 
1 0 0 0 1 0 1 1 1 0 0 0 1 1 0 1 1 1 0 0 1 0 0 
0 1 1 1 0 0 0 1 1 1 0 1 1 1 0 0 1 1 1 0 1 0 1 
1 0 0 0 1 1 0 0 0 0 0 0 0 0 0 1 1 1 0 1 1 0 0 
0 1 0 0 0 0 1 1 0 1 1 1 1 0 0 0 1 1 1 1 1 0 0 
0 0 1 0 0 1 0 1 0 1 1 1 0 0 0 0 0 0 0 0 1 0 0 
1 1 1 0 1 0 0 1 0 0 0 1 0 1 1 0 0 0 1 0 1 1 1 
1 1 0 0 0 0 0 1 0 1 1 0 0 0 0 1 1 1 0 1 1 1 1 
0 0 0 0 1 1 0 1 0 0 0 0 1 0 1 0 1 0 0 0 0 1 0 

66 64 61 77 8 26 65 52 89 97 4 82 37 15 69 46 6 83 81 43 88 90 24 
